seed= 2052018 ;
N= 14 ;
M= 2 ;
F= 2 ;
K= 4 ;
T= 60 ;

p=[ 16 16 16 16 16 16 16 10 10 10 10 10 10 10 ];
r=[ 8 11 3 10 7 7 8 5 5 5 11 4 9 10 ];
d=[ 14 31 3 4 28 17 14 26 15 25 18 17 24 3 ];
s=[ 1 1 1 1 1 1 1 1 1 1 1 1 1 1 ];
w=[ 4 4 4 2 1 1 3 2 3 4 2 4 1 5 ];
f=[ 1 1 1 1 1 1 1 2 2 2 2 2 2 2 ];

e1=[ 10 10 10 10 10 10 10 10 10 10 10 10 10 10 10 10 10 10 10 10 10 10 10 10 10 10 10 10 10 10 8 8 8 8 8 8 8 8 8 8 8 8 8 8 8 8 8 8 8 8 8 8 8 8 8 8 8 8 8 8 ];
e2=[ 10 10 10 10 10 10 10 10 10 10 10 10 10 10 10 10 10 10 10 10 9 9 9 9 9 9 9 9 9 9 8 8 8 8 8 8 8 8 8 8 8 8 8 8 8 8 8 8 8 8 9 9 9 9 9 9 9 9 9 9 ];